RAW/CMTQ/fspd/CMT7Q.vrp_seed-9.out
900.6920473	19.378	29.018
