RAW/CMTQ/fspd/CMT7Q.vrp_seed-9.sol
Route #1: 75 4 52 46 34 67
Route #2: 30 74 21 69 61 28 2
Route #3: 27 57 15 5 47 48 29 45
Route #4: 13 54 19 59 14 7
Route #5: 12 72 39 31 10 58 26
Route #6: 6 33 43 41 56 23 63
Route #7: 51 16 49 24 3 44 40 17
Route #8: 38 65 66 11 53 35 8
Route #9: 9 25 55 18 50 32
Route #10: 68 62 22 64 42 1 73
Route #11: 37 20 70 60 71 36
Cost 900.692047